NAME : euro-night-0000030.instance.-52338868.tour
COMMENT : Length = -52338868
COMMENT : Found by LKH [Keld Helsgaun] Mon May 13 17:49:45 2019
TYPE : TOUR
DIMENSION : 30
TOUR_SECTION
1
15
12
8
9
7
5
10
11
14
13
17
20
25
28
26
23
22
24
19
16
21
30
29
18
27
6
3
4
2
-1
EOF
